db/data/1935928895316582358312136485632125346.z3.out
sat
-------------------
55.319947565
